\ENCODING=ISO-8859-1
\Problem name: 

Maximize
 obj: U
Subject To
 Prob: x0 + x1 + x2 + x3 + x4 + x5 + x6 + x7 + x8 + x9  = 1
 c0:   - U >= 0
 c1:   - U >= 0
 c2:   - 2 x0 - 2 x1 - 2 x3 - 2 x4 - 2 x5 - 2 x6 - 2 x7 - 2 x8 - 2 x9 - U >= 0
 c3:   - 2 x0 - 2 x1 - 2 x3 - 2 x4 - 2 x5 - 2 x6 - 2 x7 - 2 x8 - 2 x9 - U >= 0
 c4:   - 2 x0 - 2 x1 - 2 x3 - 2 x4 - 2 x5 - 2 x6 - 2 x7 - 2 x8 - 2 x9 - U >= 0
 c5:   - 2 x0 - 2 x1 - 2 x3 - 2 x4 - 2 x5 - 2 x6 - 2 x7 - 2 x8 - 2 x9 - U >= 0
 c6:   - 2 x0 - 2 x1 - 2 x3 - 2 x4 - 2 x5 - 2 x6 - 2 x7 - 2 x8 - 2 x9 - U >= 0
 c7:   - 2 x0 - 2 x1 - 2 x3 - 2 x4 - 2 x5 - 2 x6 - 2 x7 - 2 x8 - 2 x9 - U >= 0
 c8:   - 2 x0 - 2 x1 - 2 x3 - 2 x4 - 2 x5 - 2 x6 - 2 x7 - 2 x8 - 2 x9 - U >= 0
 c9:   - 2 x0 - 2 x1 - 2 x3 - 2 x4 - 2 x5 - 2 x6 - 2 x7 - 2 x8 - 2 x9 - U >= 0
 c10:  - 2 x0 - 2 x1 - 2 x3 - 2 x4 - 2 x5 - 2 x6 - 2 x7 - 2 x8 - 2 x9 - U >= 0
Bounds
 0 <= x0 <= 1
 0 <= x1 <= 1
 0 <= x2 <= 1
 0 <= x3 <= 1
 0 <= x4 <= 1
 0 <= x5 <= 1
 0 <= x6 <= 1
 0 <= x7 <= 1
 0 <= x8 <= 1
 0 <= x9 <= 1
      U Free
End
